(set-info :smt-lib-version 2.6)
(set-logic UFLIA)
(set-info :source |Benchmarks from the paper: "Extending Sledgehammer with SMT Solvers" by Jasmin Blanchette, Sascha Bohme, and Lawrence C. Paulson, CADE 2011.  Translated to SMT2 by Andrew Reynolds and Morgan Deters.|)
(set-info :category "industrial")
(set-info :status unknown)
(declare-sort S1 0)
(declare-sort S2 0)
(declare-sort S3 0)
(declare-sort S4 0)
(declare-sort S5 0)
(declare-sort S6 0)
(declare-sort S7 0)
(declare-sort S8 0)
(declare-sort S9 0)
(declare-sort S10 0)
(declare-sort S11 0)
(declare-sort S12 0)
(declare-sort S13 0)
(declare-sort S14 0)
(declare-sort S15 0)
(declare-sort S16 0)
(declare-sort S17 0)
(declare-sort S18 0)
(declare-sort S19 0)
(declare-sort S20 0)
(declare-sort S21 0)
(declare-sort S22 0)
(declare-sort S23 0)
(declare-sort S24 0)
(declare-sort S25 0)
(declare-sort S26 0)
(declare-sort S27 0)
(declare-fun f1 () S1)
(declare-fun f2 () S1)
(declare-fun f3 (S3 S2) S1)
(declare-fun f4 (S4 S3) S3)
(declare-fun f5 (S2) S4)
(declare-fun f6 (S2 S3) S1)
(declare-fun f7 (S6 S5) S1)
(declare-fun f8 (S7 S6) S6)
(declare-fun f9 (S5) S7)
(declare-fun f10 (S5 S6) S1)
(declare-fun f11 (S2) S4)
(declare-fun f12 (S5) S7)
(declare-fun f13 () S3)
(declare-fun f14 () S6)
(declare-fun f15 (S8) S1)
(declare-fun f16 () S8)
(declare-fun f17 () S1)
(declare-fun f18 () S8)
(declare-fun f19 (S8) S1)
(declare-fun f20 (S9) S6)
(declare-fun f21 () S9)
(declare-fun f22 (S3 S3) S1)
(declare-fun f23 () S3)
(declare-fun f24 (S2) S4)
(declare-fun f25 (S10 S8) S2)
(declare-fun f26 () S10)
(declare-fun f27 (S11 S5) S8)
(declare-fun f28 () S11)
(declare-fun f29 () S3)
(declare-fun f30 () S1)
(declare-fun f31 (S12 S13) S8)
(declare-fun f32 () S12)
(declare-fun f33 (S9 S5) S13)
(declare-fun f34 (S5) S7)
(declare-fun f35 () S6)
(declare-fun f36 () S1)
(declare-fun f37 (S3) S3)
(declare-fun f38 (S6) S6)
(declare-fun f39 (S14 S3) S2)
(declare-fun f40 () S14)
(declare-fun f41 (S15 S6) S5)
(declare-fun f42 () S15)
(declare-fun f43 (S18 S17) S2)
(declare-fun f44 (S19 S8) S18)
(declare-fun f45 (S20 S17) S19)
(declare-fun f46 () S20)
(declare-fun f47 (S3 S3) S1)
(declare-fun f48 (S21 S16) S1)
(declare-fun f49 (S17 S16) S21)
(declare-fun f50 (S22) S3)
(declare-fun f51 (S23 Int) S22)
(declare-fun f52 () S23)
(declare-fun f53 (S24 S22) Int)
(declare-fun f54 () S24)
(declare-fun f55 (S26 S2) S22)
(declare-fun f56 (S27 S25) S26)
(declare-fun f57 () S27)
(declare-fun f58 () S8)
(assert (not (= f1 f2)))
(assert (forall ((?v0 S2) (?v1 S3) (?v2 S2)) (= (= (f3 (f4 (f5 ?v0) ?v1) ?v2) f1) (or (= ?v2 ?v0) (= (f6 ?v2 ?v1) f1)))))
(assert (forall ((?v0 S5) (?v1 S6) (?v2 S5)) (= (= (f7 (f8 (f9 ?v0) ?v1) ?v2) f1) (or (= ?v2 ?v0) (= (f10 ?v2 ?v1) f1)))))
(assert (forall ((?v0 S2) (?v1 S3) (?v2 S2)) (= (= (f3 (f4 (f11 ?v0) ?v1) ?v2) f1) (=> (not (= ?v2 ?v0)) (= (f3 ?v1 ?v2) f1)))))
(assert (forall ((?v0 S5) (?v1 S6) (?v2 S5)) (= (= (f7 (f8 (f12 ?v0) ?v1) ?v2) f1) (=> (not (= ?v2 ?v0)) (= (f7 ?v1 ?v2) f1)))))
(assert (forall ((?v0 S2)) (= (= (f3 f13 ?v0) f1) false)))
(assert (forall ((?v0 S5)) (= (= (f7 f14 ?v0) f1) false)))
(assert (not (= (f15 f16) f1)))
(assert (= f17 f1))
(assert (= (f15 f18) f1))
(assert (= (f19 f16) f1))
(assert (forall ((?v0 S5)) (=> (= (f10 ?v0 (f20 f21)) f1) (= (f22 f23 (f4 (f24 (f25 f26 (f27 f28 ?v0))) f29)) f1))))
(assert (forall ((?v0 S3)) (= (f22 ?v0 f29) f1)))
(assert (forall ((?v0 S3) (?v1 S3) (?v2 S3)) (=> (= (f22 ?v0 ?v1) f1) (=> (= (f22 ?v2 ?v0) f1) (= (f22 ?v2 ?v1) f1)))))
(assert (forall ((?v0 S3) (?v1 S2) (?v2 S3)) (let ((?v_0 (f24 ?v1))) (=> (= (f22 ?v0 (f4 ?v_0 f29)) f1) (=> (= (f22 ?v0 ?v2) f1) (= (f22 ?v0 (f4 ?v_0 ?v2)) f1))))))
(assert (forall ((?v0 S3) (?v1 S2) (?v2 S3)) (let ((?v_0 (f24 ?v1))) (=> (= (f22 ?v0 (f4 ?v_0 ?v2)) f1) (and (= (f22 ?v0 (f4 ?v_0 f29)) f1) (= (f22 ?v0 ?v2) f1))))))
(assert (forall ((?v0 S3) (?v1 S8)) (=> (= f30 f1) (=> (forall ((?v2 S5)) (=> (= (f10 ?v2 (f20 f21)) f1) (= (f22 ?v0 (f4 (f24 (f25 f26 (f27 f28 ?v2))) f29)) f1))) (=> (= (f15 ?v1) f1) (= (f22 ?v0 (f4 (f24 (f25 f26 ?v1)) f29)) f1))))))
(assert (forall ((?v0 S5) (?v1 S3)) (let ((?v_0 (f24 (f25 f26 (f27 f28 ?v0))))) (=> (= (f22 (f4 ?v_0 ?v1) (f4 (f24 (f25 f26 (f31 f32 (f33 f21 ?v0)))) f29)) f1) (= (f22 ?v1 (f4 ?v_0 f29)) f1)))))
(assert (forall ((?v0 S2) (?v1 S2) (?v2 S3)) (=> (= (f6 ?v0 (f4 (f24 ?v1) ?v2)) f1) (=> (=> (= ?v0 ?v1) false) (=> (=> (= (f6 ?v0 ?v2) f1) false) false)))))
(assert (forall ((?v0 S5) (?v1 S5) (?v2 S6)) (=> (= (f10 ?v0 (f8 (f34 ?v1) ?v2)) f1) (=> (=> (= ?v0 ?v1) false) (=> (=> (= (f10 ?v0 ?v2) f1) false) false)))))
(assert (forall ((?v0 S2) (?v1 S3) (?v2 S2)) (=> (=> (not (= (f6 ?v0 ?v1) f1)) (= ?v0 ?v2)) (= (f6 ?v0 (f4 (f24 ?v2) ?v1)) f1))))
(assert (forall ((?v0 S5) (?v1 S6) (?v2 S5)) (=> (=> (not (= (f10 ?v0 ?v1) f1)) (= ?v0 ?v2)) (= (f10 ?v0 (f8 (f34 ?v2) ?v1)) f1))))
(assert (forall ((?v0 S5)) (=> (= (f10 ?v0 f35) f1) false)))
(assert (forall ((?v0 S2)) (=> (= (f6 ?v0 f29) f1) false)))
(assert (forall ((?v0 S2) (?v1 S3)) (not (= f29 (f4 (f24 ?v0) ?v1)))))
(assert (forall ((?v0 S5) (?v1 S6)) (not (= f35 (f8 (f34 ?v0) ?v1)))))
(assert (forall ((?v0 S2) (?v1 S3)) (not (= (f4 (f24 ?v0) ?v1) f29))))
(assert (forall ((?v0 S5) (?v1 S6)) (not (= (f8 (f34 ?v0) ?v1) f35))))
(assert (forall ((?v0 S2) (?v1 S2)) (= (= (f6 ?v0 (f4 (f24 ?v1) f29)) f1) (= ?v0 ?v1))))
(assert (forall ((?v0 S5) (?v1 S5)) (= (= (f10 ?v0 (f8 (f34 ?v1) f35)) f1) (= ?v0 ?v1))))
(assert (forall ((?v0 S2) (?v1 S2) (?v2 S2) (?v3 S2)) (= (= (f4 (f24 ?v0) (f4 (f24 ?v1) f29)) (f4 (f24 ?v2) (f4 (f24 ?v3) f29))) (or (and (= ?v0 ?v2) (= ?v1 ?v3)) (and (= ?v0 ?v3) (= ?v1 ?v2))))))
(assert (forall ((?v0 S5) (?v1 S5) (?v2 S5) (?v3 S5)) (= (= (f8 (f34 ?v0) (f8 (f34 ?v1) f35)) (f8 (f34 ?v2) (f8 (f34 ?v3) f35))) (or (and (= ?v0 ?v2) (= ?v1 ?v3)) (and (= ?v0 ?v3) (= ?v1 ?v2))))))
(assert (forall ((?v0 S2) (?v1 S2)) (=> (= (f6 ?v0 (f4 (f24 ?v1) f29)) f1) (=> (=> (= ?v0 ?v1) false) false))))
(assert (forall ((?v0 S5) (?v1 S5)) (=> (= (f10 ?v0 (f8 (f34 ?v1) f35)) f1) (=> (=> (= ?v0 ?v1) false) false))))
(assert (forall ((?v0 S2) (?v1 S2)) (=> (= (f4 (f24 ?v0) f29) (f4 (f24 ?v1) f29)) (= ?v0 ?v1))))
(assert (forall ((?v0 S5) (?v1 S5)) (=> (= (f8 (f34 ?v0) f35) (f8 (f34 ?v1) f35)) (= ?v0 ?v1))))
(assert (forall ((?v0 S2)) (= (= (f3 f29 ?v0) f1) (= f36 f1))))
(assert (forall ((?v0 S5)) (= (= (f7 f35 ?v0) f1) (= f36 f1))))
(assert (forall ((?v0 S6) (?v1 S5)) (=> (= ?v0 f35) (not (= (f10 ?v1 ?v0) f1)))))
(assert (forall ((?v0 S3) (?v1 S2)) (=> (= ?v0 f29) (not (= (f6 ?v1 ?v0) f1)))))
(assert (forall ((?v0 S3)) (= (= (f37 ?v0) f29) (forall ((?v1 S2)) (not (= (f3 ?v0 ?v1) f1))))))
(assert (forall ((?v0 S6)) (= (= (f38 ?v0) f35) (forall ((?v1 S5)) (not (= (f7 ?v0 ?v1) f1))))))
(assert (forall ((?v0 S5)) (= (= (f10 ?v0 f35) f1) false)))
(assert (forall ((?v0 S2)) (= (= (f6 ?v0 f29) f1) false)))
(assert (forall ((?v0 S3)) (= (= f29 (f37 ?v0)) (forall ((?v1 S2)) (not (= (f3 ?v0 ?v1) f1))))))
(assert (forall ((?v0 S6)) (= (= f35 (f38 ?v0)) (forall ((?v1 S5)) (not (= (f7 ?v0 ?v1) f1))))))
(assert (forall ((?v0 S6)) (= (forall ((?v1 S5)) (=> (= (f10 ?v1 f35) f1) (= (f7 ?v0 ?v1) f1))) true)))
(assert (forall ((?v0 S3)) (= (forall ((?v1 S2)) (=> (= (f6 ?v1 f29) f1) (= (f3 ?v0 ?v1) f1))) true)))
(assert (forall ((?v0 S6)) (= (exists ((?v1 S5)) (and (= (f10 ?v1 f35) f1) (= (f7 ?v0 ?v1) f1))) false)))
(assert (forall ((?v0 S3)) (= (exists ((?v1 S2)) (and (= (f6 ?v1 f29) f1) (= (f3 ?v0 ?v1) f1))) false)))
(assert (forall ((?v0 S6)) (= (exists ((?v1 S5)) (= (f10 ?v1 ?v0) f1)) (not (= ?v0 f35)))))
(assert (forall ((?v0 S3)) (= (exists ((?v1 S2)) (= (f6 ?v1 ?v0) f1)) (not (= ?v0 f29)))))
(assert (forall ((?v0 S6)) (= (forall ((?v1 S5)) (not (= (f10 ?v1 ?v0) f1))) (= ?v0 f35))))
(assert (forall ((?v0 S3)) (= (forall ((?v1 S2)) (not (= (f6 ?v1 ?v0) f1))) (= ?v0 f29))))
(assert (= f29 (f37 f13)))
(assert (= f35 (f38 f14)))
(assert (forall ((?v0 S2) (?v1 S3)) (=> (= (f6 ?v0 ?v1) f1) (= (f4 (f24 ?v0) ?v1) ?v1))))
(assert (forall ((?v0 S5) (?v1 S6)) (=> (= (f10 ?v0 ?v1) f1) (= (f8 (f34 ?v0) ?v1) ?v1))))
(assert (forall ((?v0 S2) (?v1 S3) (?v2 S2)) (=> (= (f6 ?v0 ?v1) f1) (= (f6 ?v0 (f4 (f24 ?v2) ?v1)) f1))))
(assert (forall ((?v0 S5) (?v1 S6) (?v2 S5)) (=> (= (f10 ?v0 ?v1) f1) (= (f10 ?v0 (f8 (f34 ?v2) ?v1)) f1))))
(assert (forall ((?v0 S2) (?v1 S3) (?v2 S3)) (let ((?v_0 (f24 ?v0))) (=> (not (= (f6 ?v0 ?v1) f1)) (=> (not (= (f6 ?v0 ?v2) f1)) (= (= (f4 ?v_0 ?v1) (f4 ?v_0 ?v2)) (= ?v1 ?v2)))))))
(assert (forall ((?v0 S5) (?v1 S6) (?v2 S6)) (let ((?v_0 (f34 ?v0))) (=> (not (= (f10 ?v0 ?v1) f1)) (=> (not (= (f10 ?v0 ?v2) f1)) (= (= (f8 ?v_0 ?v1) (f8 ?v_0 ?v2)) (= ?v1 ?v2)))))))
(assert (forall ((?v0 S2) (?v1 S3) (?v2 S2)) (= (= (f3 (f4 (f24 ?v0) ?v1) ?v2) f1) (or (= ?v0 ?v2) (= (f3 ?v1 ?v2) f1)))))
(assert (forall ((?v0 S5) (?v1 S6) (?v2 S5)) (= (= (f7 (f8 (f34 ?v0) ?v1) ?v2) f1) (or (= ?v0 ?v2) (= (f7 ?v1 ?v2) f1)))))
(assert (forall ((?v0 S2) (?v1 S2) (?v2 S3)) (= (= (f6 ?v0 (f4 (f24 ?v1) ?v2)) f1) (or (= ?v0 ?v1) (= (f6 ?v0 ?v2) f1)))))
(assert (forall ((?v0 S5) (?v1 S5) (?v2 S6)) (= (= (f10 ?v0 (f8 (f34 ?v1) ?v2)) f1) (or (= ?v0 ?v1) (= (f10 ?v0 ?v2) f1)))))
(assert (forall ((?v0 S2) (?v1 S2) (?v2 S3)) (let ((?v_1 (f24 ?v0)) (?v_0 (f24 ?v1))) (= (f4 ?v_1 (f4 ?v_0 ?v2)) (f4 ?v_0 (f4 ?v_1 ?v2))))))
(assert (forall ((?v0 S5) (?v1 S5) (?v2 S6)) (let ((?v_1 (f34 ?v0)) (?v_0 (f34 ?v1))) (= (f8 ?v_1 (f8 ?v_0 ?v2)) (f8 ?v_0 (f8 ?v_1 ?v2))))))
(assert (forall ((?v0 S2) (?v1 S3)) (let ((?v_0 (f24 ?v0))) (let ((?v_1 (f4 ?v_0 ?v1))) (= (f4 ?v_0 ?v_1) ?v_1)))))
(assert (forall ((?v0 S5) (?v1 S6)) (let ((?v_0 (f34 ?v0))) (let ((?v_1 (f8 ?v_0 ?v1))) (= (f8 ?v_0 ?v_1) ?v_1)))))
(assert (forall ((?v0 S2) (?v1 S3)) (= (f4 (f24 ?v0) (f37 ?v1)) (f37 (f4 (f11 ?v0) ?v1)))))
(assert (forall ((?v0 S5) (?v1 S6)) (= (f8 (f34 ?v0) (f38 ?v1)) (f38 (f8 (f12 ?v0) ?v1)))))
(assert (forall ((?v0 S2) (?v1 S3)) (= (f4 (f24 ?v0) ?v1) (f37 (f4 (f5 ?v0) ?v1)))))
(assert (forall ((?v0 S5) (?v1 S6)) (= (f8 (f34 ?v0) ?v1) (f38 (f8 (f9 ?v0) ?v1)))))
(assert (forall ((?v0 S2) (?v1 S3)) (= (f6 ?v0 (f4 (f24 ?v0) ?v1)) f1)))
(assert (forall ((?v0 S5) (?v1 S6)) (= (f10 ?v0 (f8 (f34 ?v0) ?v1)) f1)))
(assert (forall ((?v0 S2)) (= (= (f3 f29 ?v0) f1) (= f36 f1))))
(assert (forall ((?v0 S5)) (= (= (f7 f35 ?v0) f1) (= f36 f1))))
(assert (forall ((?v0 S2)) (= (f39 f40 (f4 (f24 ?v0) f29)) ?v0)))
(assert (forall ((?v0 S5)) (= (f41 f42 (f8 (f34 ?v0) f35)) ?v0)))
(assert (=> (= f30 f1) (forall ((?v0 S16)) (=> (forall ((?v1 S16)) (= ?v1 ?v0)) false))))
(assert (= (= f30 f1) (exists ((?v0 S16) (?v1 S16)) (not (= ?v0 ?v1)))))
(assert (forall ((?v0 S17) (?v1 S5) (?v2 S17) (?v3 S3)) (let ((?v_0 (f45 f46 ?v0))) (let ((?v_1 (f24 (f43 (f44 ?v_0 (f27 f28 ?v1)) ?v2)))) (=> (= (f22 (f4 ?v_1 ?v3) (f4 (f24 (f43 (f44 ?v_0 (f31 f32 (f33 f21 ?v1))) ?v2)) f29)) f1) (= (f22 ?v3 (f4 ?v_1 f29)) f1))))))
(assert (forall ((?v0 S3) (?v1 S17) (?v2 S5) (?v3 S17)) (let ((?v_0 (f45 f46 ?v1))) (=> (= (f22 ?v0 (f4 (f24 (f43 (f44 ?v_0 (f31 f32 (f33 f21 ?v2))) ?v3)) f29)) f1) (= (f22 ?v0 (f4 (f24 (f43 (f44 ?v_0 (f27 f28 ?v2)) ?v3)) f29)) f1)))))
(assert (forall ((?v0 S2) (?v1 S3)) (=> (= (f6 ?v0 ?v1) f1) (=> (forall ((?v2 S3)) (=> (= ?v1 (f4 (f24 ?v0) ?v2)) (=> (not (= (f6 ?v0 ?v2) f1)) false))) false))))
(assert (forall ((?v0 S5) (?v1 S6)) (=> (= (f10 ?v0 ?v1) f1) (=> (forall ((?v2 S6)) (=> (= ?v1 (f8 (f34 ?v0) ?v2)) (=> (not (= (f10 ?v0 ?v2) f1)) false))) false))))
(assert (forall ((?v0 S2) (?v1 S3)) (=> (= (f6 ?v0 ?v1) f1) (exists ((?v2 S3)) (and (= ?v1 (f4 (f24 ?v0) ?v2)) (not (= (f6 ?v0 ?v2) f1)))))))
(assert (forall ((?v0 S5) (?v1 S6)) (=> (= (f10 ?v0 ?v1) f1) (exists ((?v2 S6)) (and (= ?v1 (f8 (f34 ?v0) ?v2)) (not (= (f10 ?v0 ?v2) f1)))))))
(assert (forall ((?v0 S6)) (=> (forall ((?v1 S5)) (=> (= (f10 ?v1 ?v0) f1) false)) (= ?v0 f35))))
(assert (forall ((?v0 S3)) (=> (forall ((?v1 S2)) (=> (= (f6 ?v1 ?v0) f1) false)) (= ?v0 f29))))
(assert (forall ((?v0 S5) (?v1 S5)) (= (= (f27 f28 ?v0) (f27 f28 ?v1)) (= ?v0 ?v1))))
(assert (forall ((?v0 S8) (?v1 S17) (?v2 S17)) (let ((?v_0 (f4 (f24 (f43 (f44 (f45 f46 ?v1) ?v0) ?v2)) f29))) (=> (= (f22 f29 (f4 (f24 (f25 f26 ?v0)) f29)) f1) (=> (= (f47 f29 ?v_0) f1) (= (f22 f29 ?v_0) f1))))))
(assert (forall ((?v0 S17) (?v1 S8) (?v2 S17) (?v3 S17) (?v4 S8) (?v5 S17)) (= (= (f43 (f44 (f45 f46 ?v0) ?v1) ?v2) (f43 (f44 (f45 f46 ?v3) ?v4) ?v5)) (and (= ?v0 ?v3) (and (= ?v1 ?v4) (= ?v2 ?v5))))))
(assert (forall ((?v0 S3) (?v1 S3)) (=> (= (f22 ?v0 ?v1) f1) (= (f47 ?v0 ?v1) f1))))
(assert (forall ((?v0 S3) (?v1 S17) (?v2 S8) (?v3 S17) (?v4 S17)) (let ((?v_0 (f44 (f45 f46 ?v1) ?v2))) (=> (= (f22 ?v0 (f4 (f24 (f43 ?v_0 ?v3)) f29)) f1) (=> (forall ((?v5 S16) (?v6 S16)) (=> (= (f48 (f49 ?v3 ?v5) ?v6) f1) (= (f48 (f49 ?v4 ?v5) ?v6) f1))) (= (f22 ?v0 (f4 (f24 (f43 ?v_0 ?v4)) f29)) f1))))))
(assert (forall ((?v0 S3) (?v1 S17) (?v2 S8) (?v3 S17) (?v4 S17)) (=> (= (f22 ?v0 (f4 (f24 (f43 (f44 (f45 f46 ?v1) ?v2) ?v3)) f29)) f1) (=> (forall ((?v5 S16) (?v6 S16)) (=> (= (f48 (f49 ?v4 ?v5) ?v6) f1) (= (f48 (f49 ?v1 ?v5) ?v6) f1))) (= (f22 ?v0 (f4 (f24 (f43 (f44 (f45 f46 ?v4) ?v2) ?v3)) f29)) f1)))))
(assert (forall ((?v0 S3) (?v1 S17) (?v2 S8) (?v3 S17) (?v4 S17) (?v5 S17)) (=> (= (f22 ?v0 (f4 (f24 (f43 (f44 (f45 f46 ?v1) ?v2) ?v3)) f29)) f1) (=> (forall ((?v6 S16) (?v7 S16)) (=> (= (f48 (f49 ?v4 ?v6) ?v7) f1) (forall ((?v8 S16)) (=> (forall ((?v9 S16)) (=> (= (f48 (f49 ?v1 ?v9) ?v7) f1) (= (f48 (f49 ?v3 ?v9) ?v8) f1))) (= (f48 (f49 ?v5 ?v6) ?v8) f1))))) (= (f22 ?v0 (f4 (f24 (f43 (f44 (f45 f46 ?v4) ?v2) ?v5)) f29)) f1)))))
(assert (forall ((?v0 S22) (?v1 S17) (?v2 S5) (?v3 S17)) (let ((?v_0 (f45 f46 ?v1))) (= (= (f3 (f50 ?v0) (f43 (f44 ?v_0 (f31 f32 (f33 f21 ?v2))) ?v3)) f1) (= (f3 (f50 (f51 f52 (+ (f53 f54 ?v0) 1))) (f43 (f44 ?v_0 (f27 f28 ?v2)) ?v3)) f1)))))
(assert (forall ((?v0 S25) (?v1 S17) (?v2 S8) (?v3 S17)) (= (f55 (f56 f57 ?v0) (f43 (f44 (f45 f46 ?v1) ?v2) ?v3)) (f51 f52 0))))
(assert (forall ((?v0 S3) (?v1 S17)) (= (f22 ?v0 (f4 (f24 (f43 (f44 (f45 f46 ?v1) f58) ?v1)) f29)) f1)))
(assert (=> (= (f15 f58) f1) (=> false false)))
(assert (forall ((?v0 S3) (?v1 S22)) (=> (forall ((?v2 S2)) (=> (= (f6 ?v2 ?v0) f1) (= (f3 (f50 (f51 f52 (+ (f53 f54 ?v1) 1))) ?v2) f1))) (forall ((?v2 S2)) (=> (= (f6 ?v2 ?v0) f1) (= (f3 (f50 ?v1) ?v2) f1))))))
(assert (forall ((?v0 S22) (?v1 S2)) (=> (= (f3 (f50 (f51 f52 (+ (f53 f54 ?v0) 1))) ?v1) f1) (= (f3 (f50 ?v0) ?v1) f1))))
(assert (forall ((?v0 S5)) (not (= (f27 f28 ?v0) f58))))
(assert (forall ((?v0 S5)) (not (= f58 (f27 f28 ?v0)))))
(assert (= (f15 f58) f1))
(assert (forall ((?v0 S3) (?v1 S3)) (= (= (f47 ?v0 ?v1) f1) (forall ((?v2 S22)) (=> (forall ((?v3 S2)) (=> (= (f6 ?v3 ?v0) f1) (= (f3 (f50 ?v2) ?v3) f1))) (forall ((?v3 S2)) (=> (= (f6 ?v3 ?v1) f1) (= (f3 (f50 ?v2) ?v3) f1))))))))
(assert (forall ((?v0 S22)) (= (f51 f52 (f53 f54 ?v0)) ?v0)))
(assert (forall ((?v0 Int)) (=> (<= 0 ?v0) (= (f53 f54 (f51 f52 ?v0)) ?v0))))
(assert (forall ((?v0 Int)) (=> (< ?v0 0) (= (f53 f54 (f51 f52 ?v0)) 0))))
(check-sat)
(exit)
